  50 

  34  43  35  19  42  20  39  40   4  48  13   3  27   1  12   5  50  33  10  32  13  26  38  20   1  20   4  27  25  50  36  49   6   9  14   5  28  31  44  18   6  13  23  33  14  48  25  27  15  42

 545

  10  22  15   4  25   1  10  11   1  11  11   2  12   8  25  17  12  25  14   7   3  11   1   4   6   1  21  17  22  20  12   4  13  20   8  15   9   4  25  22   4  22  12   5  21   3   5  25   6  21

